param set_len = 26;
param target := 3871371;
set values := 522653, 217996, 281587, 184827, 237411, 281337, 261791, 98284, 393135, 204450, 350251, 220735, 171210, 158187, 366070, 166468, 304174, 343937, 366953, 399445, 446434, 200487, 427290, 271775, 125674, 430815, ;
